horizonLength = 14;

amountOfShifts = 1;
shiftIDs = [sD];
shiftLength = [480];
notNextShift = [|0
|];

amountOfEmployees = 8;
employeeIDs = [A,B,C,D,E,F,G,H];
maxShifts = [|14
|14
|14
|14
|14
|14
|14
|14
|];
maxMin = [4320,4320,4320,4320,4320,4320,4320,4320];
minMin = [3360,3360,3360,3360,3360,3360,3360,3360];
maxConsecShifts = [5,5,5,5,5,5,5,5];
minConsecShifts = [2,2,2,2,2,2,2,2];
minConsecDaysOff = [2,2,2,2,2,2,2,2];
maxWeekends = [1,1,1,1,1,1,1,1];
maxDaysOff = 1;
daysOff = [|0
|5
|8
|2
|9
|5
|1
|7
|];

amountOfShiftOnRequests = 21;
shiftOnRequests = array3d(A..H,0..13,sD..sD,[0,0,2,2,0,0,0,0,0,0,0,0,0,0,3,3,3,3,3,0,0,0,0,0,0,0,0,0,1,1,1,1,1,0,0,0,0,0,0,0,0,0,0,0,0,0,0,0,0,0,2,2,0,0,0,0,0,0,0,0,0,0,0,0,0,0,0,0,0,0,2,2,0,0,0,0,0,0,0,0,0,0,0,0,0,0,0,0,0,0,0,0,0,0,0,0,0,0,0,0,0,0,0,0,0,0,0,1,1,1,1,1]);

amountOfShiftOffRequests = 5;
shiftOffRequests = array3d(A..H,0..13,sD..sD,[0,0,0,0,0,0,0,0,0,0,0,0,0,0,0,0,0,0,0,0,0,0,0,0,0,0,0,0,0,0,0,0,0,0,0,0,0,0,0,0,1,1,0,0,0,0,0,0,0,0,0,0,0,0,0,0,0,0,0,0,0,0,0,0,0,0,0,0,0,0,0,0,0,0,0,0,0,0,3,0,0,0,0,0,0,0,0,0,0,0,0,0,0,0,0,0,0,0,0,0,3,3,0,0,0,0,0,0,0,0,0,0]);

requirements = array2d(0..13,sD..sD,[5,7,6,4,5,5,5,6,7,4,2,5,6,4]);
weightForUnder = array2d(0..13,sD..sD,[100,100,100,100,100,100,100,100,100,100,100,100,100,100]);
weightForOver = array2d(0..13,sD..sD,[1,1,1,1,1,1,1,1,1,1,1,1,1,1]);
